\ LP format - for model browsing. Use MPS format to capture full model detail.
Maximize
  5 Lahmacun_5 + 10 Kebap_0 + 7 Tatlı_1 + 5 Antrikot_5 + 14 Künefe_4
   + 10 Hambuger_4 + 11 Salata_2 + 9 Pilav_3 + 13 Lahmacun_5 + 13 Salata_2
   + 5 Mantı_8 + 10 Künefe_8 + 6 Lahmacun_3 + 6 Künefe_7 + 12 Salata_3
   + 10 Hambuger_0 + 11 Pizza_7 + 5 Lahmacun_0 + 8 Pizza_1 + 9 Mercimek_6
Subject To
 _Money_Constraint: 12 Lahmacun_5 + 8 Kebap_0 + 6 Tatlı_1 + 14 Antrikot_5
   + 9 Künefe_4 + 7 Hambuger_4 + 11 Salata_2 + 13 Pilav_3 + 8 Lahmacun_5
   + 9 Salata_2 + 7 Mantı_8 + 13 Künefe_8 + 7 Lahmacun_3 + 11 Künefe_7
   + 6 Salata_3 + 5 Hambuger_0 + 9 Pizza_7 + 8 Lahmacun_0 + 8 Pizza_1
   + 7 Mercimek_6 <= 120
 _Food_Capacity_Constraint: 8 Lahmacun_5 + 5 Kebap_0 + 8 Tatlı_1
   + 7 Antrikot_5 + 14 Künefe_4 + 14 Hambuger_4 + 8 Salata_2 + 10 Pilav_3
   + 13 Lahmacun_5 + 14 Salata_2 + 6 Mantı_8 + 7 Künefe_8 + 12 Lahmacun_3
   + 11 Künefe_7 + 11 Salata_3 + 11 Hambuger_0 + 8 Pizza_7 + 5 Lahmacun_0
   + 14 Pizza_1 + 8 Mercimek_6 <= 63
Bounds
Binaries
 Lahmacun_5 Kebap_0 Tatlı_1 Antrikot_5 Künefe_4 Hambuger_4 Salata_2
 Pilav_3 Lahmacun_5 Salata_2 Mantı_8 Künefe_8 Lahmacun_3 Künefe_7
 Salata_3 Hambuger_0 Pizza_7 Lahmacun_0 Pizza_1 Mercimek_6
End
